Ti  O Li 
 1.0000000000000000
     0.0000000000000000   12.6610805089967400   -0.0491006970640266
     3.8785241970584141    0.0000000000000000    0.0000000000000000
     0.0000000000000000   -1.9592597542901211   -6.2592526957590842
 Ti  O   Li 
   8  16   1
Cartesian
  0.0000000000000000  1.9334693169377473 -1.8479298903409458
  1.9392620985292071  4.3741421803379126 -2.0144549901066626
  1.9392620985292071  2.3170571271073448 -4.4530100638595114
  0.0000000000000000 -0.1241715351070072 -4.4340773276772563
  1.9392620985292071  8.3868935204644508 -1.8370950879784240
  0.0000000000000000 10.8438327543329915 -1.8916305395745832
  0.0000000000000000  8.7862720276858788 -4.4627171577405669
  1.9392620985292071  6.3072329161504417 -4.2791233548766412
  1.9392620985292071  4.3749367906251484 -4.1704872022801043
  0.0000000000000000  3.9283344186951785 -1.9630135237450135
  1.9392620985292071  2.5611231294897934 -6.2382438173272146
  0.0000000000000000  0.0093081106013648 -2.3428881646844419
  0.0000000000000000  1.9835118210340950 -4.1066060188498934
  0.0000000000000000  1.6611174686159751 -0.0462607512694664
  1.9392620985292071  2.2113570889955874 -2.2690450492113845
  1.9392620985292071  0.3051860321552489 -4.4282915866288706
  0.0000000000000000 10.6752681227980766 -3.9721788380325305
  1.9392620985292071 10.3922188508911812 -1.8847773834633932
  0.0000000000000000  9.0127744036236930 -6.2555747767714642
  1.9392620985292071  6.4467418766683151 -2.2199546419309666
  1.9392620985292071  8.4247871492463169 -4.0523116915771524
  1.9392620985292071  6.2010144039085535 -6.2566720811308132
  0.0000000000000000  8.7165513467962796 -2.1974138767366789
  0.0000000000000000  6.7423095175082945 -4.3470087647278541
  1.9392620985292071  4.3701059850669708 -6.2508574478920904
