Si  O  C  H Li 
 1.0000000000000000
     7.6791796000000003    0.0000000000000000    0.0000000000000000
     0.0000000000000000    7.6791796000000003    0.0000000000000000
     0.0000000000000000    0.0000000000000000   43.2645304805131943
 Si  O   C   H   Li 
  48   6   6   8   2
Selective dynamics
Cartesian
  1.9197948890784995  2.8796923390784999 22.3199214902565117   F   F   F
  5.7593847109215011  2.8796923390784999 22.3199214902565117   F   F   F
  1.9197948890784995  6.7192821609215008 22.3199214902565117   F   F   F
  5.7593847109215011  6.7192821609215008 22.3199214902565117   F   F   F
  3.8395898000000002  2.8796923390784999 23.6870540362775479   F   F   F
  3.8395898000000002  6.7192821609215008 23.6870540362775479   F   F   F
  3.8279712939144375  4.7984066165031676 24.9992153588075148   F   F   F
  3.8362709208432482  0.9597856478842851 25.0940533569724273   F   F   F
  1.9345421952460402  4.8181139054754558 26.3631577197720546   F   F   F
  5.7456040093798242  4.7988642585249162 26.3126557577249187   F   F   F
  1.9454585943833607  0.9308748122121101 26.5351133664782211   F   F   F
  5.7423997845555572  0.9406384340319416 26.5030395853933278   F   F   F
  2.0044131052299368  2.9352404000780785 27.7962042619925569   F   F   F
  5.6961378620204046  2.9394820851945713 27.7721769685215136   F   F   F
  2.0387196001189607  6.6378840636997571 27.8809349414744290   F   F   F
  5.6224141115956980  6.6280880767754971 27.7866309109521374   F   F   F
  3.8556081445969319  3.7568635501221515 28.9519659749070186   F   F   F
  3.8645447336893559  6.1457587717841893 29.3354974450342247   F   F   F
  7.6791795781570533  2.8796923390784999 23.6870540362775479   F   F   F
  7.6791795781570533  6.7192821609215008 23.6870540362775479   F   F   F
  0.0102649820742001  4.8019508191515357 25.0187105179840188   F   F   F
  0.0095420592695032  0.9559330625581328 25.1244331300765431   F   F   F
  0.0089368045466360  3.6206165763906171 28.7937037979958959   F   F   F
  7.6430538825897880  5.9703812256528614 28.7654471614778551   F   F   F
  5.7593847109215011  4.7994872609215014 20.9446089902566790   F   F   F
  1.9197948890784995  4.7994872609215014 20.9446089902566790   F   F   F
  5.7593847109215011  0.9598974390784996 20.9446089902566790   F   F   F
  1.9197948890784995  0.9598974390784996 20.9446089902566790   F   F   F
  3.8395898000000002  4.7994872609215014 19.5774764442356464   F   F   F
  3.8395898000000002  0.9598974390784996 19.5774764442356464   F   F   F
  3.8512083060855629  2.8807729834968328 18.2653151217056795   F   F   F
  3.8429086791567517  6.7193939521156612 18.1704771235407669   F   F   F
  5.7446374047539601  2.8610656945245450 16.9013727607411397   F   F   F
  1.9335755906201759  2.8803153414750842 16.9518747227882756   F   F   F
  5.7337210056166397  6.7483047877878901 16.7294171140352788   F   F   F
  1.9367798154444429  6.7385411659680594 16.7614908951198665   F   F   F
  5.6747664947700631  4.7439391999219218 15.4683262185209465   F   F   F
  1.9830417379795415  4.7396975148054290 15.4923535119916824   F   F   F
  5.6404599998810392  1.0412955363002430 15.3835955390390744   F   F   F
  2.0567654884043023  1.0510915232244487 15.4778995695610586   F   F   F
  3.8235714554030684  3.9223160498778489 14.3125645056061739   F   F   F
  3.8146348663106995  1.5334208282158108 13.9290330354789678   F   F   F
  0.0000000218429472  4.7994872609215014 19.5774764442356464   F   F   F
  0.0000000218429472  0.9598974390784996 19.5774764442356464   F   F   F
  7.6689146179258003  2.8772287808484651 18.2458199625291719   F   F   F
  7.6696375407304966  6.7232465374418675 18.1400973504366547   F   F   F
  7.6702427954533645  4.0585630236093833 14.4708266825172966   F   F   F
  0.0361257174102123  1.7087983743471389 14.4990833190350319   F   F   F
  6.4411325830286303  3.8375664975914621 31.4601902951981920   T   T   T
  7.4612683318286175  5.6687300807405476 30.5635320850218051   T   T   T
  1.0030770344016884  3.9653331003305552 31.5617111898944280   T   T   T
  1.2380470169713704  3.8416131024084836 11.8043401853149987   T   T   T
  0.2179112681713824  2.0104495192594523 12.7009983954916983   T   T   T
  6.6761025655983115  3.7138464996694451 11.7028192906187662   T   T   T
  6.8315304871975986  2.5779978778267334 32.0173859498843143   T   T   T
  7.6034124300060029  4.2876677150171920 30.6938385733158334   T   T   T
  0.7068672191275354  2.6291391943656137 31.9776707225511529   T   T   T
  0.8476491128024013  5.1011817221732674 11.2471445306288800   T   T   T
  0.0757671699939973  3.3915118849827541 12.5706919071973644   T   T   T
  6.9723123808724647  5.0500404056343866 11.2868597579620396   T   T   T
  6.4373033066189072  1.7566665854089605 31.3973106276290430   T   T   T
  6.4208195510543238  2.5082939622838238 33.0328295249416826   T   T   T
  1.1789663795384047  2.4677209127506288 32.9544852188478146   T   T   T
  1.1088337284049725  1.9046248561779302 31.2477323239816940   T   T   T
  1.2418762933810932  5.9225130145910398 11.8672198528841513   T   T   T
  1.2583600489457307  5.1708856377162302 10.2317009555715082   T   T   T
  6.5002132204615952  5.2114586872493716 10.3100452616656906   T   T   T
  6.5703458715950278  5.7745547438220157 12.0167981565315021   T   T   T
  5.5306455946928192  5.6584059334209638 31.4014350147968884   T   T   T
  2.1485340053071811  2.0207736665789815 11.8630954657163077   T   T   T
