Ti  O 
 1.0000000000000000
     0.0000000000000000   12.4376755310946443   -0.0083563462944453
     3.8549495611415718    0.0000000000000000    0.0000000000000000
     0.0000000000000000   -1.9443772815805223   -6.3055392622645732
 Ti  O  
   8  16
Cartesian
  0.0000000000000000  1.8948965584802893 -1.8221917289940492
  1.9274747805707859  4.3772152061362650 -1.8620768226081179
  1.9274747805707859  2.3795639254865097 -4.4875257064177472
  0.0000000000000000 -0.1027547221694645 -4.4476406128036770
  1.9274747805707859  8.1137343240275239 -1.8263699021412718
  0.0000000000000000 10.5960529716835854 -1.8662549957553405
  0.0000000000000000  8.5984016910338319 -4.4917038795649704
  1.9274747805707859  6.1160830433778584 -4.4518187859509002
  1.9274747805707859  4.2629401076222742 -3.9538916613209483
  0.0000000000000000  3.9202952285542025 -1.8545506770291351
  1.9274747805707859  2.6363106387081547 -6.2856642369809563
  0.0000000000000000  0.0115203763445256 -2.3558257740908473
  0.0000000000000000  2.0057478570501917 -4.0971794346874004
  0.0000000000000000  1.6381498452586456 -0.0240531984308383
  1.9274747805707859  2.2687126269166225 -2.2125380007243503
  1.9274747805707859  0.3541652554125980 -4.4551667583826617
  0.0000000000000000 10.4817778731695945 -3.9580698344681711
  1.9274747805707859 10.1391329941015247 -1.8587288501763577
  0.0000000000000000  8.8551484042554769 -6.2898424101281787
  1.9274747805707859  6.2303581418918483 -2.3600039472380701
  1.9274747805707859  8.2245856225975142 -4.1013576078346228
  1.9274747805707859  7.8569876108059677 -0.0282313715780616
  0.0000000000000000  8.4875503924639446 -2.2167161738715730
  0.0000000000000000  6.5730030209599200 -4.4593449315298841
