Si  O  C  H Li                          
   1.00000000000000     
     7.6791796000000003    0.0000000000000000    0.0000000000000000
     0.0000000000000000    7.6791796000000003    0.0000000000000000
     0.0000000000000000    0.0000000000000000   43.2645304805131943
   Si   O    C    H    Li
    48     6     6     8     2
Selective dynamics
Direct
  0.2499999985777777  0.3749999985777777  0.5158942265722644   F   F   F
  0.7500000014222223  0.3749999985777777  0.5158942265722644   F   F   F
  0.2499999985777777  0.8750000014222223  0.5158942265722644   F   F   F
  0.7500000014222223  0.8750000014222223  0.5158942265722644   F   F   F
  0.5000000000000000  0.3749999985777777  0.5474936113532181   F   F   F
  0.5000000000000000  0.8750000014222223  0.5474936113532181   F   F   F
  0.4998210588785383  0.6243103984250951  0.5778534242495539   T   T   T
  0.5000763632570440  0.1253982333868322  0.5800646710908737   T   T   T
  0.2510046112479358  0.6255783918454085  0.6086299711765406   T   T   T
  0.7486470617490895  0.6254069602939012  0.6086258768211010   T   T   T
  0.2525030100543191  0.1217056157170902  0.6129870999039397   T   T   T
  0.7475595151151992  0.1217969912270860  0.6130257167900908   T   T   T
  0.2590620376475243  0.3829865192593118  0.6423313409248053   T   T   T
  0.7418526386572282  0.3831394773456864  0.6424152362187243   T   T   T
  0.2673616592676140  0.8626307915676890  0.6431189340770302   T   T   T
  0.7316450306831754  0.8624499833862274  0.6430820105702679   T   T   T
  0.5002055495629492  0.4936940942988599  0.6685443019804111   T   T   T
  0.4992353759718640  0.8016723785090960  0.6784614143319274   T   T   T
  0.9999999971555624  0.3749999985777777  0.5474936113532181   F   F   F
  0.9999999971555624  0.8750000014222223  0.5474936113532181   F   F   F
  0.9998415889029246  0.6251203405184285  0.5781255528482845   T   T   T
  0.9999691520032172  0.1246730667283344  0.5807165594840811   T   T   T
  0.0008310883630003  0.4715513209362499  0.6666317988839836   T   T   T
  0.9995155496303809  0.7764201733228191  0.6642943372527199   T   T   T
  0.7500000014222223  0.6250000014222223  0.4841057734277356   F   F   F
  0.2499999985777777  0.6250000014222223  0.4841057734277356   F   F   F
  0.7500000014222223  0.1249999985777777  0.4841057734277356   F   F   F
  0.2499999985777777  0.1249999985777777  0.4841057734277356   F   F   F
  0.5000000000000000  0.6250000014222223  0.4525063886467819   F   F   F
  0.5000000000000000  0.1249999985777777  0.4525063886467819   F   F   F
  0.5001789411214546  0.3756896015749049  0.4221465757504461   T   T   T
  0.4999236367429560  0.8746017666131678  0.4199353289091263   T   T   T
  0.7489953887520642  0.3744216081545915  0.3913700288234594   T   T   T
  0.2513529382509105  0.3745930397060988  0.3913741231788990   T   T   T
  0.7474969899456809  0.8782943842829098  0.3870129000960674   T   T   T
  0.2524404848848008  0.8782030087729140  0.3869742832099092   T   T   T
  0.7409379623524757  0.6170134807406882  0.3576686590751947   T   T   T
  0.2581473613427647  0.6168605226543136  0.3575847637812757   T   T   T
  0.7326383407323860  0.1373692084323110  0.3568810659229698   T   T   T
  0.2683549693168246  0.1375500166137655  0.3569179894297321   T   T   T
  0.4997944504370508  0.5063059057011401  0.3314556980195889   T   T   T
  0.5007646240281360  0.1983276214909040  0.3215385856680726   T   T   T
  0.0000000028444376  0.6250000014222223  0.4525063886467819   F   F   F
  0.0000000028444376  0.1249999985777777  0.4525063886467819   F   F   F
  0.0001584110970754  0.3748796594815715  0.4218744471517155   T   T   T
  0.0000308479967828  0.8753269332716656  0.4192834405159189   T   T   T
  0.9991689116369997  0.5284486790637501  0.3333682011160164   T   T   T
  0.0004844503696191  0.2235798266771809  0.3357056627472801   T   T   T
  0.8526409643256088  0.5189019809140376  0.7296308684160451   T   T   T
  0.9973992959225058  0.7458569148838308  0.7062631274802911   T   T   T
  0.1454487322374618  0.5220186779850380  0.7301853259759667   T   T   T
  0.1473590356743912  0.4810980190859624  0.2703691315839549   T   T   T
  0.0026007040774942  0.2541430851161692  0.2937368725197160   T   T   T
  0.8545512677625382  0.4779813220149620  0.2698146740240333   T   T   T
  0.8986637727844311  0.3496727934115214  0.7400958939778377   T   T   T
  0.9994944034102105  0.5678255574795941  0.7104606489569534   T   T   T
  0.1003423727846808  0.3566797154034163  0.7428700391992322   T   T   T
  0.1013362272155689  0.6503272065884786  0.2599041060221623   T   T   T
  0.0005055965897895  0.4321744425204059  0.2895393510430466   T   T   T
  0.8996576272153192  0.6433202845965837  0.2571299608007678   T   T   T
  0.8585149214416816  0.2526239677509849  0.7227851492726529   T   T   T
  0.8316261645249909  0.3245104234081140  0.7620661778908655   T   T   T
  0.1470155827604103  0.3520625423091701  0.7668922483010334   T   T   T
  0.1620532332125251  0.2511555690227283  0.7295433305901966   T   T   T
  0.1414850785583184  0.7473760322490151  0.2772148507273471   T   T   T
  0.1683738354750091  0.6754895765918931  0.2379338221091345   T   T   T
  0.8529844172395897  0.6479374576908299  0.2331077516989666   T   T   T
  0.8379467667874749  0.7488444309772717  0.2704566694098034   T   T   T
  0.8904002839671818  0.8909479998930792  0.7421625046428204   T   T   T
  0.1095997160328182  0.1090520001069208  0.2578374953571796   T   T   T
 
  0.00000000E+00  0.00000000E+00  0.00000000E+00
  0.00000000E+00  0.00000000E+00  0.00000000E+00
  0.00000000E+00  0.00000000E+00  0.00000000E+00
  0.00000000E+00  0.00000000E+00  0.00000000E+00
  0.00000000E+00  0.00000000E+00  0.00000000E+00
  0.00000000E+00  0.00000000E+00  0.00000000E+00
  0.00000000E+00  0.00000000E+00  0.00000000E+00
  0.00000000E+00  0.00000000E+00  0.00000000E+00
  0.00000000E+00  0.00000000E+00  0.00000000E+00
  0.00000000E+00  0.00000000E+00  0.00000000E+00
  0.00000000E+00  0.00000000E+00  0.00000000E+00
  0.00000000E+00  0.00000000E+00  0.00000000E+00
  0.00000000E+00  0.00000000E+00  0.00000000E+00
  0.00000000E+00  0.00000000E+00  0.00000000E+00
  0.00000000E+00  0.00000000E+00  0.00000000E+00
  0.00000000E+00  0.00000000E+00  0.00000000E+00
  0.00000000E+00  0.00000000E+00  0.00000000E+00
  0.00000000E+00  0.00000000E+00  0.00000000E+00
  0.00000000E+00  0.00000000E+00  0.00000000E+00
  0.00000000E+00  0.00000000E+00  0.00000000E+00
  0.00000000E+00  0.00000000E+00  0.00000000E+00
  0.00000000E+00  0.00000000E+00  0.00000000E+00
  0.00000000E+00  0.00000000E+00  0.00000000E+00
  0.00000000E+00  0.00000000E+00  0.00000000E+00
  0.00000000E+00  0.00000000E+00  0.00000000E+00
  0.00000000E+00  0.00000000E+00  0.00000000E+00
  0.00000000E+00  0.00000000E+00  0.00000000E+00
  0.00000000E+00  0.00000000E+00  0.00000000E+00
  0.00000000E+00  0.00000000E+00  0.00000000E+00
  0.00000000E+00  0.00000000E+00  0.00000000E+00
  0.00000000E+00  0.00000000E+00  0.00000000E+00
  0.00000000E+00  0.00000000E+00  0.00000000E+00
  0.00000000E+00  0.00000000E+00  0.00000000E+00
  0.00000000E+00  0.00000000E+00  0.00000000E+00
  0.00000000E+00  0.00000000E+00  0.00000000E+00
  0.00000000E+00  0.00000000E+00  0.00000000E+00
  0.00000000E+00  0.00000000E+00  0.00000000E+00
  0.00000000E+00  0.00000000E+00  0.00000000E+00
  0.00000000E+00  0.00000000E+00  0.00000000E+00
  0.00000000E+00  0.00000000E+00  0.00000000E+00
  0.00000000E+00  0.00000000E+00  0.00000000E+00
  0.00000000E+00  0.00000000E+00  0.00000000E+00
  0.00000000E+00  0.00000000E+00  0.00000000E+00
  0.00000000E+00  0.00000000E+00  0.00000000E+00
  0.00000000E+00  0.00000000E+00  0.00000000E+00
  0.00000000E+00  0.00000000E+00  0.00000000E+00
  0.00000000E+00  0.00000000E+00  0.00000000E+00
  0.00000000E+00  0.00000000E+00  0.00000000E+00
  0.00000000E+00  0.00000000E+00  0.00000000E+00
  0.00000000E+00  0.00000000E+00  0.00000000E+00
  0.00000000E+00  0.00000000E+00  0.00000000E+00
  0.00000000E+00  0.00000000E+00  0.00000000E+00
  0.00000000E+00  0.00000000E+00  0.00000000E+00
  0.00000000E+00  0.00000000E+00  0.00000000E+00
  0.00000000E+00  0.00000000E+00  0.00000000E+00
  0.00000000E+00  0.00000000E+00  0.00000000E+00
  0.00000000E+00  0.00000000E+00  0.00000000E+00
  0.00000000E+00  0.00000000E+00  0.00000000E+00
  0.00000000E+00  0.00000000E+00  0.00000000E+00
  0.00000000E+00  0.00000000E+00  0.00000000E+00
  0.00000000E+00  0.00000000E+00  0.00000000E+00
  0.00000000E+00  0.00000000E+00  0.00000000E+00
  0.00000000E+00  0.00000000E+00  0.00000000E+00
  0.00000000E+00  0.00000000E+00  0.00000000E+00
  0.00000000E+00  0.00000000E+00  0.00000000E+00
  0.00000000E+00  0.00000000E+00  0.00000000E+00
  0.00000000E+00  0.00000000E+00  0.00000000E+00
  0.00000000E+00  0.00000000E+00  0.00000000E+00
  0.00000000E+00  0.00000000E+00  0.00000000E+00
  0.00000000E+00  0.00000000E+00  0.00000000E+00
