Si  O  C  H Li                          
    1.000000000000000     
     7.6791796000000003    0.0000000000000000    0.0000000000000000
     0.0000000000000000    7.6791796000000003    0.0000000000000000
     0.0000000000000000    0.0000000000000000   43.2645304805131943
   Si   O    C    H    Li
    48     6     6     8     2
Selective dynamics
Direct
  0.2499999985777777  0.3749999985777777  0.5158942265722644   F   F   F
  0.7500000014222223  0.3749999985777777  0.5158942265722644   F   F   F
  0.2499999985777777  0.8750000014222223  0.5158942265722644   F   F   F
  0.7500000014222223  0.8750000014222223  0.5158942265722644   F   F   F
  0.5000000000000000  0.3749999985777777  0.5474936113532181   F   F   F
  0.5000000000000000  0.8750000014222223  0.5474936113532181   F   F   F
  0.4984870120649916  0.6248592774810433  0.5778224120580120   T   T   T
  0.4995678081084662  0.1249854408776017  0.5800144616910856   T   T   T
  0.2519204258806553  0.6274256048752207  0.6093480601077204   T   T   T
  0.7482054475428370  0.6249188726520885  0.6081807768508298   T   T   T
  0.2533419838732982  0.1212206069789161  0.6133225779124061   T   T   T
  0.7477881861957698  0.1224920477223819  0.6125812366629191   T   T   T
  0.2610191725728015  0.3822335917339501  0.6424709560759538   T   T   T
  0.7417638548290242  0.3827859534883871  0.6419155982989437   T   T   T
  0.2654866413228518  0.8644001585403416  0.6444293889663797   T   T   T
  0.7321633826086966  0.8631245031403481  0.6422496812595142   T   T   T
  0.5020859447794308  0.4892272020987960  0.6691847953359229   T   T   T
  0.5032496874652281  0.8003144986717317  0.6780495967302187   T   T   T
  0.9999999971555624  0.3749999985777777  0.5474936113532181   F   F   F
  0.9999999971555624  0.8750000014222223  0.5474936113532181   F   F   F
  0.0013367290008688  0.6253208115032933  0.5782730157964551   T   T   T
  0.0012425883709639  0.1244837485710235  0.5807166482805783   T   T   T
  0.0011637707427283  0.4714848154340103  0.6655267832148297   T   T   T
  0.9952956280108083  0.7774764410579564  0.6648736700016684   T   T   T
  0.7500000014222223  0.6250000014222223  0.4841057734277356   F   F   F
  0.2499999985777777  0.6250000014222223  0.4841057734277356   F   F   F
  0.7500000014222223  0.1249999985777777  0.4841057734277356   F   F   F
  0.2499999985777777  0.1249999985777777  0.4841057734277356   F   F   F
  0.5000000000000000  0.6250000014222223  0.4525063886467819   F   F   F
  0.5000000000000000  0.1249999985777777  0.4525063886467819   F   F   F
  0.5015129879350084  0.3751407225189567  0.4221775879419880   T   T   T
  0.5004321918915338  0.8750145591223912  0.4199855383089144   T   T   T
  0.7480795741193447  0.3725743951247793  0.3906519398922796   T   T   T
  0.2517945524571630  0.3750811273479115  0.3918192231491702   T   T   T
  0.7466580161267018  0.8787793930210839  0.3866774220876010   T   T   T
  0.2522118138042302  0.8775079522776181  0.3874187633370809   T   T   T
  0.7389808274271985  0.6177664082660499  0.3575290439240533   T   T   T
  0.2582361451709687  0.6172140465116129  0.3580844017010563   T   T   T
  0.7345133586771482  0.1355998414596584  0.3555706110336274   T   T   T
  0.2678366173913034  0.1368754968596448  0.3577503187404858   T   T   T
  0.4979140552205692  0.5107727979012040  0.3308152046640771   T   T   T
  0.4967503125347790  0.1996855013282683  0.3219504032697813   T   T   T
  0.0000000028444376  0.6250000014222223  0.4525063886467819   F   F   F
  0.0000000028444376  0.1249999985777777  0.4525063886467819   F   F   F
  0.9986632709991312  0.3746791884967067  0.4217269842035449   T   T   T
  0.9987574116290361  0.8755162514289765  0.4192833517194217   T   T   T
  0.9988362292572717  0.5285151845659897  0.3344732167851703   T   T   T
  0.0047043719891917  0.2225235589420436  0.3351263299983245   T   T   T
  0.8387787392065462  0.4997365210199618  0.7271589439614559   T   T   T
  0.9716231056542313  0.7381947520462404  0.7064339251014857   T   T   T
  0.1306229423780749  0.5163745747437076  0.7295054595382737   T   T   T
  0.1612212607934538  0.5002634789800311  0.2728410560385441   T   T   T
  0.0283768943457687  0.2618052479537596  0.2935660748985214   T   T   T
  0.8693770576219251  0.4836254252562924  0.2704945404617263   T   T   T
  0.8896172303611181  0.3357126688151340  0.7400377536583989   T   T   T
  0.9901334290978170  0.5583497116042437  0.7094457800054172   T   T   T
  0.0920498355224737  0.3423724058186650  0.7391197909094203   T   T   T
  0.1103827696388819  0.6642873311848660  0.2599622463416011   T   T   T
  0.0098665709021830  0.4416502883957492  0.2905542199945828   T   T   T
  0.9079501644775263  0.6576275941813350  0.2608802090905797   T   T   T
  0.8382800822393719  0.2287570648053290  0.7257055670989132   T   T   T
  0.8361335305993265  0.3266356685138376  0.7635083325316572   T   T   T
  0.1535276476068361  0.3213521549555409  0.7616975118611506   T   T   T
  0.1443948163948363  0.2480245228511038  0.7222482707412254   T   T   T
  0.1617199177606281  0.7712429351946710  0.2742944329010868   T   T   T
  0.1638664694006806  0.6733643314861695  0.2364916674683428   T   T   T
  0.8464723523931639  0.6786478450444591  0.2383024881388565   T   T   T
  0.8556051836051637  0.7519754771488891  0.2777517292587746   T   T   T
  0.7202130804041644  0.7368503184143478  0.7258008966245555   T   T   T
  0.2797869195958356  0.2631496815856451  0.2741991033754445   T   T   T
 
  0.00000000E+00  0.00000000E+00  0.00000000E+00
  0.00000000E+00  0.00000000E+00  0.00000000E+00
  0.00000000E+00  0.00000000E+00  0.00000000E+00
  0.00000000E+00  0.00000000E+00  0.00000000E+00
  0.00000000E+00  0.00000000E+00  0.00000000E+00
  0.00000000E+00  0.00000000E+00  0.00000000E+00
  0.00000000E+00  0.00000000E+00  0.00000000E+00
  0.00000000E+00  0.00000000E+00  0.00000000E+00
  0.00000000E+00  0.00000000E+00  0.00000000E+00
  0.00000000E+00  0.00000000E+00  0.00000000E+00
  0.00000000E+00  0.00000000E+00  0.00000000E+00
  0.00000000E+00  0.00000000E+00  0.00000000E+00
  0.00000000E+00  0.00000000E+00  0.00000000E+00
  0.00000000E+00  0.00000000E+00  0.00000000E+00
  0.00000000E+00  0.00000000E+00  0.00000000E+00
  0.00000000E+00  0.00000000E+00  0.00000000E+00
  0.00000000E+00  0.00000000E+00  0.00000000E+00
  0.00000000E+00  0.00000000E+00  0.00000000E+00
  0.00000000E+00  0.00000000E+00  0.00000000E+00
  0.00000000E+00  0.00000000E+00  0.00000000E+00
  0.00000000E+00  0.00000000E+00  0.00000000E+00
  0.00000000E+00  0.00000000E+00  0.00000000E+00
  0.00000000E+00  0.00000000E+00  0.00000000E+00
  0.00000000E+00  0.00000000E+00  0.00000000E+00
  0.00000000E+00  0.00000000E+00  0.00000000E+00
  0.00000000E+00  0.00000000E+00  0.00000000E+00
  0.00000000E+00  0.00000000E+00  0.00000000E+00
  0.00000000E+00  0.00000000E+00  0.00000000E+00
  0.00000000E+00  0.00000000E+00  0.00000000E+00
  0.00000000E+00  0.00000000E+00  0.00000000E+00
  0.00000000E+00  0.00000000E+00  0.00000000E+00
  0.00000000E+00  0.00000000E+00  0.00000000E+00
  0.00000000E+00  0.00000000E+00  0.00000000E+00
  0.00000000E+00  0.00000000E+00  0.00000000E+00
  0.00000000E+00  0.00000000E+00  0.00000000E+00
  0.00000000E+00  0.00000000E+00  0.00000000E+00
  0.00000000E+00  0.00000000E+00  0.00000000E+00
  0.00000000E+00  0.00000000E+00  0.00000000E+00
  0.00000000E+00  0.00000000E+00  0.00000000E+00
  0.00000000E+00  0.00000000E+00  0.00000000E+00
  0.00000000E+00  0.00000000E+00  0.00000000E+00
  0.00000000E+00  0.00000000E+00  0.00000000E+00
  0.00000000E+00  0.00000000E+00  0.00000000E+00
  0.00000000E+00  0.00000000E+00  0.00000000E+00
  0.00000000E+00  0.00000000E+00  0.00000000E+00
  0.00000000E+00  0.00000000E+00  0.00000000E+00
  0.00000000E+00  0.00000000E+00  0.00000000E+00
  0.00000000E+00  0.00000000E+00  0.00000000E+00
  0.00000000E+00  0.00000000E+00  0.00000000E+00
  0.00000000E+00  0.00000000E+00  0.00000000E+00
  0.00000000E+00  0.00000000E+00  0.00000000E+00
  0.00000000E+00  0.00000000E+00  0.00000000E+00
  0.00000000E+00  0.00000000E+00  0.00000000E+00
  0.00000000E+00  0.00000000E+00  0.00000000E+00
  0.00000000E+00  0.00000000E+00  0.00000000E+00
  0.00000000E+00  0.00000000E+00  0.00000000E+00
  0.00000000E+00  0.00000000E+00  0.00000000E+00
  0.00000000E+00  0.00000000E+00  0.00000000E+00
  0.00000000E+00  0.00000000E+00  0.00000000E+00
  0.00000000E+00  0.00000000E+00  0.00000000E+00
  0.00000000E+00  0.00000000E+00  0.00000000E+00
  0.00000000E+00  0.00000000E+00  0.00000000E+00
  0.00000000E+00  0.00000000E+00  0.00000000E+00
  0.00000000E+00  0.00000000E+00  0.00000000E+00
  0.00000000E+00  0.00000000E+00  0.00000000E+00
  0.00000000E+00  0.00000000E+00  0.00000000E+00
  0.00000000E+00  0.00000000E+00  0.00000000E+00
  0.00000000E+00  0.00000000E+00  0.00000000E+00
  0.00000000E+00  0.00000000E+00  0.00000000E+00
  0.00000000E+00  0.00000000E+00  0.00000000E+00
