Si 
 1.0000000000000000
     5.5190322175046544    0.0000000000000000    0.0000000000000000
     0.0000000000000000    5.5190322175046544    0.0000000000000000
     0.0000000000000000    0.0000000000000000    5.5190322175046544
 Si 
   8
Cartesian
  0.0000000000000000  0.0000000000000000  0.0000000000000000
  1.3797580543761636  1.3797580543761636  1.3797580543761636
  0.0000000000000000  2.7595161087523272  2.7595161087523272
  1.3797580543761636  4.1392741631284906  4.1392741631284906
  2.7595161087523272  0.0000000000000000  2.7595161087523272
  4.1392741631284906  1.3797580543761636  4.1392741631284906
  2.7595161087523272  2.7595161087523272  0.0000000000000000
  4.1392741631284906  4.1392741631284906  1.3797580543761636
