Ti  O Li 
 1.0000000000000000
    -0.0020327769719612   12.5322377108160321   -0.0963080286035791
     3.9446011973141406   -0.0006695852273555    0.0003536187102409
    -0.0002782639555033   -1.9144301145610521   -6.3326273116330682
 Ti  O   Li 
   8  16   2
Cartesian
  3.9428024393133563  1.9379736424600424 -1.8877374693346276
  1.9709072738951301  4.4421459872221174 -1.9567305590311084
  1.9705990109446927  2.3690683862243200 -4.3972659439116768
  3.9423282491027511 -0.0758632445809722 -4.4462626871011555
  1.9767157461365261  8.2604257145593518 -2.0342316604757436
  0.0026298068069926 10.7016814125977238 -1.9885561633542583
  0.0063735160198794  8.6875724134295034 -4.5479514786388195
  1.9746127222658278  6.1870797396112991 -4.4738878153394115
  1.9723226278806409  4.3351974231257167 -4.0379220957385478
  3.9431727502026801  3.9818786946745726 -1.9388065389637905
  1.9703936086172718  4.5104290131268785 -0.0868608923172590
  3.9442355732436636  0.0497337417803199 -2.3292108100626736
  3.9426961030991370  1.9595501238957798 -4.1854490458872933
  3.9408587159180533  1.9148348901105716 -0.0503814917546543
  1.9705502058625992  2.3012017586852531 -2.2188042797774439
  1.9702280765804203  0.2706768557464097 -4.4231670229160525
  0.0015950619451976 10.5753237492859213 -4.1038244116666771
  1.9763958806235848 10.3564119040076221 -2.0088803390354841
  0.0042720292595344  8.7082671765018702 -6.3836722125222067
  1.9731537672659585  6.2930005277225636 -2.3920566449727101
  1.9768874198581310  8.3248795187064495 -4.2126800269734188
  1.9760466194627659  6.1202886249651147 -6.3441310851340518
  0.0044689974409340  8.6661110388497509 -2.2458821068574553
  0.0038231235731489  6.6447265577775791 -4.4929230703250322
  3.9420807027902645  2.1585648283498866 -6.3358984932210989
  0.0034887764857845  8.4624115563736861 -0.0956747359078165
