Ti  O 
 1.0000000000000000
     0.0000000000000000   12.4376755310946443   -0.0083563462944453
     3.8549495611415718    0.0000000000000000    0.0000000000000000
     0.0000000000000000   -1.9443772815805223   -6.3055392622645732
 Ti  O  
   8  16
Cartesian
  0.0000000000000000  1.8948608993689371 -1.8221776555882456
  1.9274747805707859  4.3777004153135683 -1.8618350495867086
  1.9274747805707859  2.3795995845978632 -4.4875397798235497
  0.0000000000000000 -0.1032399313467685 -4.4478823858250873
  1.9274747805707859  8.1136986649161713 -1.8263558287354682
  0.0000000000000000 10.5965381808608896 -1.8660132227339314
  0.0000000000000000  8.5984373501451845 -4.4917179529707720
  1.9274747805707859  6.1155978342005533 -4.4520605589723097
  1.9274747805707859  4.2632541391345757 -3.9534846066606777
  0.0000000000000000  3.9205904066816686 -1.8552242123536626
  1.9274747805707859  2.6362093581235015 -6.2858708879760776
  0.0000000000000000  0.0112063448322238 -2.3562328287511183
  0.0000000000000000  2.0062318232268028 -4.0967251953346819
  0.0000000000000000  1.6382511258433126 -0.0238465474356734
  1.9274747805707859  2.2682286607400108 -2.2129922400770701
  1.9274747805707859  0.3538700772851318 -4.4544932230581331
  0.0000000000000000 10.4820919046818979 -3.9576627798079000
  1.9274747805707859 10.1394281722289890 -1.8594023855008852
  0.0000000000000000  8.8550471236708219 -6.2900490611233000
  1.9274747805707859  6.2300441103795459 -2.3604110018983411
  1.9274747805707859  8.2250695887741241 -4.1009033684819043
  1.9274747805707859  7.8570888913906209 -0.0280247205829408
  0.0000000000000000  8.4870664262873330 -2.2171704132242929
  0.0000000000000000  6.5727078428324539 -4.4586713962053564
